objective value:                          2763.155277
t_x3                                                1 	(obj:44.72136)
t_x4                                                1 	(obj:50)
t_x5                                                1 	(obj:41.231056)
t_x10                                               1 	(obj:50.990196)
t_x14                                               1 	(obj:64.031242)
t_x16                                               1 	(obj:58.309518)
t_x19                                               1 	(obj:64.031242)
t_x22                                               1 	(obj:53.851648)
t_x23                                               1 	(obj:72.111026)
t_x28                                               1 	(obj:12.64911)
t_x30                                               1 	(obj:50.990196)
t_x31                                               1 	(obj:34.928498)
t_x32                                               1 	(obj:68)
t_x34                                               1 	(obj:72.111026)
t_x38                                               1 	(obj:84.852814)
t_x39                                               1 	(obj:67.941152)
t_x44                                               1 	(obj:63.780874)
t_x45                                               1 	(obj:58.309518)
t_x47                                               1 	(obj:68.410526)
t_x48                                               1 	(obj:55.605756)
t_x49                                               1 	(obj:87.86353)
t_x54                                               1 	(obj:45.607018)
t_x62                                               1 	(obj:50.990196)
t_x65                                               1 	(obj:99.859902)
t_x66                                               1 	(obj:80.993826)
t_x67                                               1 	(obj:87.726848)
t_x68                                               1 	(obj:42.755116)
t_x72                                               1 	(obj:44.94441)
t_x75                                               1 	(obj:55.569776)
t_x77                                               1 	(obj:39.395432)
t_x79                                               1 	(obj:51.10773)
t_x81                                               1 	(obj:55.172456)
t_x82                                               1 	(obj:46.647616)
t_x83                                               1 	(obj:42.190046)
t_x86                                               1 	(obj:70.710678)
t_x87                                               1 	(obj:36.769552)
t_x88                                               1 	(obj:38.470768)
t_x93                                               1 	(obj:40.496914)
t_x97                                               1 	(obj:34.409302)
t_x37787                                            1 	(obj:369.859367)
t_x51916                                            1 	(obj:106.50297)
t_x59577                                            1 	(obj:62.515335)
t_x64253                                            1 	(obj:35.739731)
